Normalized Data/p01_28_normalized_splitx10_0.vrp
NAME:p01_28_NORMALIZED_splitx10_
BEST_KNOWN: 0
COMMENT: 0
DIMENSION: 177
CAPACITY: 1000
EDGE_WEIGHT_FORMAT: FUNCTION
EDGE_WEIGHT_TYPE: EXACT_2D
NODE_COORD_SECTION
1 0.00000 0.00000
2 -29 -44
3 -6 -37
4 -6 -37
5 -6 -37
6 -6 -37
7 -6 -37
8 -6 -37
9 -19 16
10 -19 16
11 -19 16
12 -19 16
13 30 27
14 30 27
15 -12 -47
16 -12 -47
17 -12 -47
18 -12 -47
19 -12 -47
20 21 -5
21 21 -5
22 25 -3
23 25 -3
24 25 -3
25 25 -3
26 -2 -12
27 -2 -12
28 -2 -12
29 -2 -12
30 43 3
31 43 3
32 43 3
33 43 3
34 39 -13
35 39 -13
36 39 -13
37 39 -13
38 39 -13
39 39 -13
40 39 -13
41 -49 38
42 -49 38
43 -27 -43
44 -27 -43
45 -27 -43
46 -27 -43
47 -37 41
48 -37 41
49 28 22
50 28 22
51 -29 26
52 -29 26
53 46 -50
54 46 -50
55 46 -50
56 -41 -14
57 -41 -14
58 -41 -14
59 -41 -14
60 -41 -14
61 18 -35
62 18 -35
63 -12 -5
64 -12 -5
65 -12 -5
66 -12 -5
67 -12 -5
68 -12 -5
69 -15 33
70 -15 33
71 -15 33
72 -10 -8
73 -10 -8
74 -10 -8
75 -10 -8
76 -10 -8
77 2 42
78 2 42
79 2 42
80 2 42
81 2 42
82 7 22
83 7 22
84 7 22
85 -45 -7
86 -45 -7
87 -45 -7
88 -45 -7
89 21 -23
90 21 -23
91 21 -23
92 21 -23
93 -12 -33
94 -12 -33
95 -12 -33
96 -12 -33
97 -24 42
98 -24 42
99 15 40
100 15 40
101 -37 38
102 -37 38
103 49 47
104 -15 -39
105 -15 -39
106 -15 -39
107 -15 -39
108 -25 50
109 -25 50
110 -25 50
111 -25 50
112 50 43
113 50 43
114 50 43
115 50 43
116 12 -46
117 12 -46
118 12 -46
119 20 24
120 20 24
121 20 24
122 20 24
123 20 24
124 15 -50
125 15 -50
126 15 -50
127 15 -50
128 -1 -48
129 -1 -48
130 -1 -48
131 -1 -48
132 -34 -28
133 -34 -28
134 11 34
135 11 34
136 11 34
137 -3 -41
138 -3 -41
139 -3 -41
140 40 6
141 40 6
142 40 6
143 40 6
144 40 6
145 -46 45
146 -46 45
147 -46 45
148 -40 -46
149 -40 -46
150 1 1
151 1 1
152 1 1
153 1 1
154 1 1
155 1 1
156 16 10
157 16 10
158 16 10
159 -3 -33
160 -3 -33
161 -3 -33
162 -3 -33
163 -3 -33
164 -3 -33
165 -24 13
166 -24 13
167 -24 13
168 -8 34
169 -8 34
170 -8 34
171 24 -28
172 24 -28
173 24 -28
174 24 -28
175 24 -28
176 44 41
177 44 41
DEMAND_SECTION
1 0
2 200
3 200
4 100
5 50
6 10
7 10
8 10
9 200
10 200
11 50
12 10
13 100
14 50
15 200
16 100
17 10
18 10
19 10
20 100
21 50
22 200
23 100
24 10
25 10
26 200
27 100
28 50
29 10
30 200
31 50
32 10
33 10
34 200
35 100
36 50
37 10
38 10
39 10
40 10
41 200
42 200
43 200
44 10
45 10
46 10
47 200
48 10
49 100
50 50
51 200
52 50
53 200
54 200
55 50
56 200
57 200
58 10
59 10
60 10
61 100
62 50
63 200
64 100
65 10
66 10
67 10
68 10
69 200
70 200
71 10
72 200
73 50
74 10
75 10
76 10
77 200
78 100
79 50
80 10
81 10
82 200
83 200
84 100
85 100
86 50
87 10
88 10
89 100
90 10
91 10
92 10
93 200
94 50
95 10
96 10
97 200
98 100
99 200
100 50
101 200
102 100
103 200
104 100
105 50
106 10
107 10
108 200
109 10
110 10
111 10
112 200
113 100
114 10
115 10
116 200
117 200
118 50
119 100
120 50
121 10
122 10
123 10
124 100
125 50
126 10
127 10
128 200
129 100
130 50
131 10
132 100
133 50
134 200
135 50
136 10
137 200
138 200
139 50
140 200
141 50
142 10
143 10
144 10
145 100
146 50
147 10
148 200
149 100
150 200
151 100
152 50
153 10
154 10
155 10
156 200
157 200
158 50
159 200
160 200
161 50
162 10
163 10
164 10
165 200
166 200
167 100
168 200
169 200
170 10
171 100
172 50
173 10
174 10
175 10
176 200
177 200
DEPOT_SECTION
1
-1
EOF