Normalized Data/p01_28_normalized_splitx10_0.sol
176 -2 3 5 18 17 14 15 16 103 104 92 -4 7 6 136 137 138 159 163 162 158 160 161 -10 11 8 9 164 165 166 -20 19 22 21 23 24 156 157 155 -27 28 26 25 71 72 -38 37 35 33 34 36 39 31 29 30 32 142 139 143 141 140 -41 40 145 144 146 101 100 -48 49 13 12 120 118 122 119 121 82 83 81 -51 50 46 47 107 109 108 110 96 97 -60 61 52 54 53 173 171 170 174 172 88 89 91 90 -67 62 64 66 63 65 55 57 59 56 58 84 87 85 86 -70 68 69 168 169 167 -74 75 73 132 131 148 147 1 44 43 42 45 105 106 94 95 93 -77 79 78 80 76 98 99 133 135 134 -112 114 113 111 102 176 175 -115 117 116 126 125 123 124 127 128 129 130 -149 152 154 -151 150 153 0 





OBJ=
1591.001
BEST_KNOWN=
0.000